Te                                      
 1.
     4.3116057574674684    0.0000000000000000    0.0000000000000000
     0.0000000000000000    5.9489568385652802    0.0000000000000000
     0.0000000000000000    0.0000000000000000   39.3750407926572237
   Te   S 
    15     3
Selective dynamics
Direct
  0.8985858885120978  0.9791098019291210  0.8365512101055638   T   T   T
  0.3063038925468998  0.3183287591074218  0.8119313052077288   T   T   T
  0.8795825070398224  0.6502376042028272  0.7842429878150378   T   T   T
  0.3742459821394624  0.9970015128352628  0.7408752698553209   T   T   T
  0.7954103092299600  0.3310711150591393  0.7142679745270208   T   T   T
  0.8629317223104104  0.9932912671528473  0.6444890519068526   T   T   T
  0.3660916680279007  0.6658395213366622  0.6876790453644968   T   T   T
  0.2870884670646064  0.3285547562813858  0.6182682385923671   T   T   T
  0.8541697191808935  0.6582955637798508  0.5910338994529857   T   T   T
  0.3561976957807410  0.9866206812189761  0.5489831379764784   T   T   T
  0.7847959494103691  0.3253530362804418  0.5236540219310051   T   T   T
  0.3548252630553058  0.6522831451543535  0.4956866483301404   T   T   T
  0.8614620779626622 -0.0167451001275592  0.4525076622265877   T   T   T
  0.3039566595834416  0.3052301619267759  0.4249755481919280   T   T   T
  0.8787491007480233  0.6426170561106537  0.3992823132681281   T   T   T
  0.1035164045439329  0.8752063505005656  0.3166180909628981   T   T   T
  0.7515732460719452  0.3976431923538404  0.3398080230257244   T   T   T
  0.7895061588549538  0.6490757968459054  0.3060220234584580   T   T   T
 
  0.00000000E+00  0.00000000E+00  0.00000000E+00
  0.00000000E+00  0.00000000E+00  0.00000000E+00
  0.00000000E+00  0.00000000E+00  0.00000000E+00
  0.00000000E+00  0.00000000E+00  0.00000000E+00
  0.00000000E+00  0.00000000E+00  0.00000000E+00
  0.00000000E+00  0.00000000E+00  0.00000000E+00
  0.00000000E+00  0.00000000E+00  0.00000000E+00
  0.00000000E+00  0.00000000E+00  0.00000000E+00
  0.00000000E+00  0.00000000E+00  0.00000000E+00
  0.00000000E+00  0.00000000E+00  0.00000000E+00
  0.00000000E+00  0.00000000E+00  0.00000000E+00
  0.00000000E+00  0.00000000E+00  0.00000000E+00
  0.00000000E+00  0.00000000E+00  0.00000000E+00
  0.00000000E+00  0.00000000E+00  0.00000000E+00
  0.00000000E+00  0.00000000E+00  0.00000000E+00
  0.00000000E+00  0.00000000E+00  0.00000000E+00
  0.00000000E+00  0.00000000E+00  0.00000000E+00
  0.00000000E+00  0.00000000E+00  0.00000000E+00
