Te                                      
 1.
     4.3116057574674684    0.0000000000000000   0.000000000000000
     0.0000000000000000    5.9489568385652802   0.000000000000000
     0.0000000000000000    0.0000000000000000   39.3750407926572237
  S   Te
  12  15
Selective dynamics
Direct
  0.8965570273296474 -0.0059777751110036  0.8352885124043269   T   T   T
  0.3010318444382030  0.3302109547123170  0.8108420143447044   T   T   T
  0.8806606660755362  0.6586936760951495  0.7829505159941442   T   T   T
  0.3854239160379496 -0.0002408363852627  0.7395016649898937   T   T   T
  0.8062093065096736  0.3291512552354724  0.7130092645232622   T   T   T
  0.8905053595197004  0.9894433678495419  0.6426006298063512   T   T   T
  0.3862580412926094  0.6627217336375212  0.6863292063556188   T   T   T
  0.3130660138881147  0.3195295795076851  0.6161414227099979   T   T   T
  0.8909616970058222  0.6500558622838322  0.5895229763292253   T   T   T
  0.3887924536611590 -0.0228728578012335  0.5457941649685363   T   T   T
  0.8092536827374670  0.3104402343690721  0.5191422914449991   T   T   T
  0.3879439460867124  0.6401882808544250  0.4926283839302678   T   T   T
  0.8836131395206984 -0.0183452313457826  0.4490336901999133   T   T   T
  0.3038934376643161  0.3105169962537834  0.4212852196681336   T   T   T
  0.8986578015553944  0.6466636084424846  0.3967437923306462   T   T   T
 
  0.00000000E+00  0.00000000E+00  0.00000000E+00
  0.00000000E+00  0.00000000E+00  0.00000000E+00
  0.00000000E+00  0.00000000E+00  0.00000000E+00
  0.00000000E+00  0.00000000E+00  0.00000000E+00
  0.00000000E+00  0.00000000E+00  0.00000000E+00
  0.00000000E+00  0.00000000E+00  0.00000000E+00
  0.00000000E+00  0.00000000E+00  0.00000000E+00
  0.00000000E+00  0.00000000E+00  0.00000000E+00
  0.00000000E+00  0.00000000E+00  0.00000000E+00
  0.00000000E+00  0.00000000E+00  0.00000000E+00
  0.00000000E+00  0.00000000E+00  0.00000000E+00
  0.00000000E+00  0.00000000E+00  0.00000000E+00
  0.00000000E+00  0.00000000E+00  0.00000000E+00
  0.00000000E+00  0.00000000E+00  0.00000000E+00
  0.00000000E+00  0.00000000E+00  0.00000000E+00
